(set-info :source |printed by MathSAT|)
(declare-fun call_Age2.Count () Int)
(declare-fun call_Sofar.Sofar () Bool)
(declare-fun call_Age3.Count () Int)
(declare-fun call_Age.flby () Int)
(declare-fun call_Age2.flby () Int)
(declare-fun call_Dursince.Count () Int)
(declare-fun call_Age4.Count () Int)
(declare-fun call_Age3.flby () Int)
(declare-fun call_Dursince.flby () Int)
(declare-fun call_Age4.flby () Int)
(declare-fun call_Age.Count () Int)
(declare-fun call_RaisingEdge.flby () Bool)
(declare-fun call_Sofar.flby () Bool)
(declare-fun _OK_ () Bool)
(declare-fun env () Bool)
(declare-fun call_RaisingEdge.res () Bool)
(define-fun .def_260 () Bool (= call_Age4.flby call_Age4.Count))
(define-fun .def_258 () Bool (= call_Dursince.flby call_Dursince.Count))
(define-fun .def_256 () Bool (= call_Age3.flby call_Age3.Count))
(define-fun .def_254 () Bool (= call_Age2.flby call_Age2.Count))
(define-fun .def_252 () Bool (= call_RaisingEdge.flby call_RaisingEdge.res))
(define-fun .def_250 () Bool (= call_Sofar.flby call_Sofar.Sofar))
(define-fun .def_248 () Bool (= call_Age.flby call_Age.Count))
(define-fun .def_243 () Bool (<= call_Age3.Count 600))
(define-fun .def_238 () Int (* (- 1) call_Age4.Count))
(define-fun .def_239 () Int (* 2 call_Dursince.Count))
(define-fun .def_240 () Int (+ .def_239 .def_238))
(define-fun .def_241 () Bool (<= .def_240 0))
(define-fun .def_244 () Bool (or .def_241 .def_243))
(define-fun .def_233 () Bool (not env))
(define-fun .def_245 () Bool (or .def_233 .def_244))
(define-fun .def_246 () Bool (= _OK_ .def_245))
(define-fun .def_226 () Bool (<= 300 call_Age2.Count))
(define-fun .def_224 () Bool (not call_RaisingEdge.res))
(define-fun .def_227 () Bool (or .def_224 .def_226))
(define-fun .def_229 () Bool (and .def_227 call_Sofar.Sofar))
(define-fun .def_231 () Bool (= .def_229 env))
(define-fun .def_247 () Bool (and .def_231 .def_246))
(define-fun .def_249 () Bool (and .def_247 .def_248))
(define-fun .def_251 () Bool (and .def_249 .def_250))
(define-fun .def_253 () Bool (and .def_251 .def_252))
(define-fun .def_255 () Bool (and .def_253 .def_254))
(define-fun .def_257 () Bool (and .def_255 .def_256))
(define-fun .def_259 () Bool (and .def_257 .def_258))
(define-fun .def_261 () Bool (and .def_259 .def_260))
(define-fun .def_221 () Bool (= call_Age4.flby 0))
(define-fun .def_218 () Bool (= call_Dursince.flby 0))
(define-fun .def_215 () Bool (= call_Age3.flby 0))
(define-fun .def_212 () Bool (= call_Age2.flby 0))
(define-fun .def_209 () Bool (not call_RaisingEdge.flby))
(define-fun .def_204 () Bool (<= call_Age.Count 10))
(define-fun .def_206 () Bool (= .def_204 call_Sofar.flby))
(define-fun .def_202 () Bool (= call_Age.flby 0))
(define-fun .def_207 () Bool (and .def_202 .def_206))
(define-fun .def_210 () Bool (and .def_207 .def_209))
(define-fun .def_213 () Bool (and .def_210 .def_212))
(define-fun .def_216 () Bool (and .def_213 .def_215))
(define-fun .def_219 () Bool (and .def_216 .def_218))
(define-fun .def_222 () Bool (and .def_219 .def_221))
(define-fun .def_262 () Bool (and .def_222 .def_261))
(assert .def_262)
